objective value:                                  -17
t_n_1                                               1 	(obj:-1)
t_n_147                                             1 	(obj:-1)
t_n_242                                             1 	(obj:-1)
t_n_342                                             1 	(obj:-1)
t_n_362                                             1 	(obj:-1)
t_n_460                                             1 	(obj:-1)
t_n_519                                             1 	(obj:-1)
t_n_558                                             1 	(obj:-1)
t_n_635                                             1 	(obj:-1)
t_n_650                                             1 	(obj:-1)
t_n_693                                             1 	(obj:-1)
t_n_713                                             1 	(obj:-1)
t_n_895                                             1 	(obj:-1)
t_n_915                                             1 	(obj:-1)
t_n_923                                             1 	(obj:-1)
t_n_932                                             1 	(obj:-1)
t_n_947                                             1 	(obj:-1)
